c FILE /home/rafael/Documents/HappySet/MIHS/inputs/happygen/output/graph_d_regular_k4_p0.1_v100_20241127_084022.txt
c SOURCE This is a d-regular graph formed for the happy graph colouring problem.
c DESCRIPTION It was generated using the problem generator of Rhyd Lewis
c
c GRAPH STATS
c Seed                             = 210343289
c Number of Nodes                  = 100
c Number of colours k              = 4
c Number of pre-assignments        = 10
c Degree of all vertices           = 6
c Density                          = 0.0606061
c 
c The degrees of nodes 1 to 100, respectively, are as follows 
c [6, 6, 6, 6, 6, 6, 6, 6, 6, 6, 6, 6, 6, 6, 6, 6, 6, 6, 6, 6, 6, 6, 6, 6, 6, 6, 
c  6, 6, 6, 6, 6, 6, 6, 6, 6, 6, 6, 6, 6, 6, 6, 6, 6, 6, 6, 6, 6, 6, 6, 6, 6, 
c  6, 6, 6, 6, 6, 6, 6, 6, 6, 6, 6, 6, 6, 6, 6, 6, 6, 6, 6, 6, 6, 6, 6, 6, 6, 
c  6, 6, 6, 6, 6, 6, 6, 6, 6, 6, 6, 6, 6, 6, 6, 6, 6, 6, 6, 6, 6, 6, 6, 6] 
c  
p edge 100 300 4
e 1 28
e 1 36
e 1 41
e 1 56
e 1 66
e 1 85
e 2 13
e 2 32
e 2 34
e 2 60
e 2 62
e 2 92
e 3 39
e 3 72
e 3 75
e 3 82
e 3 85
e 3 98
e 4 6
e 4 31
e 4 56
e 4 66
e 4 69
e 4 77
e 5 12
e 5 14
e 5 62
e 5 83
e 5 95
e 5 99
e 6 14
e 6 26
e 6 42
e 6 46
e 6 53
e 7 10
e 7 12
e 7 27
e 7 49
e 7 56
e 7 92
e 8 25
e 8 38
e 8 43
e 8 66
e 8 72
e 8 87
e 9 17
e 9 28
e 9 33
e 9 40
e 9 84
e 9 94
e 10 18
e 10 19
e 10 24
e 10 47
e 10 58
e 11 39
e 11 40
e 11 48
e 11 50
e 11 72
e 11 73
e 12 36
e 12 51
e 12 52
e 12 84
e 13 23
e 13 32
e 13 35
e 13 59
e 13 71
e 14 18
e 14 22
e 14 29
e 14 61
e 15 18
e 15 29
e 15 31
e 15 38
e 15 42
e 15 63
e 16 28
e 16 41
e 16 58
e 16 85
e 16 97
e 16 99
e 17 18
e 17 30
e 17 40
e 17 44
e 17 80
e 18 55
e 18 65
e 19 21
e 19 22
e 19 28
e 19 73
e 19 93
e 20 21
e 20 51
e 20 52
e 20 59
e 20 65
e 20 98
e 21 26
e 21 32
e 21 64
e 21 67
e 22 23
e 22 70
e 22 78
e 22 96
e 23 56
e 23 58
e 23 61
e 23 91
e 24 31
e 24 38
e 24 55
e 24 73
e 24 79
e 25 36
e 25 49
e 25 60
e 25 70
e 25 75
e 26 35
e 26 69
e 26 86
e 26 88
e 27 34
e 27 35
e 27 52
e 27 80
e 27 83
e 28 54
e 28 63
e 29 37
e 29 59
e 29 91
e 29 94
e 30 53
e 30 61
e 30 76
e 30 78
e 30 82
e 31 55
e 31 77
e 31 90
e 32 57
e 32 72
e 32 99
e 33 44
e 33 66
e 33 67
e 33 74
e 33 75
e 34 44
e 34 58
e 34 76
e 34 100
e 35 67
e 35 69
e 35 90
e 36 50
e 36 95
e 36 96
e 37 46
e 37 53
e 37 60
e 37 75
e 37 99
e 38 53
e 38 75
e 38 84
e 39 65
e 39 69
e 39 93
e 39 100
e 40 70
e 40 78
e 40 88
e 41 49
e 41 60
e 41 62
e 41 86
e 42 43
e 42 70
e 42 83
e 42 100
e 43 78
e 43 86
e 43 96
e 43 97
e 44 62
e 44 71
e 44 92
e 45 50
e 45 52
e 45 68
e 45 79
e 45 91
e 45 93
e 46 77
e 46 80
e 46 81
e 46 98
e 47 53
e 47 55
e 47 62
e 47 63
e 47 78
e 48 53
e 48 73
e 48 81
e 48 82
e 48 89
e 49 65
e 49 71
e 49 99
e 50 52
e 50 89
e 50 97
e 51 59
e 51 67
e 51 90
e 51 95
e 52 64
e 54 56
e 54 60
e 54 69
e 54 94
e 54 95
e 55 95
e 55 98
e 56 70
e 57 61
e 57 62
e 57 68
e 57 72
e 57 76
e 58 81
e 58 87
e 59 65
e 59 90
e 60 89
e 61 76
e 61 96
e 63 83
e 63 87
e 63 98
e 64 68
e 64 77
e 64 82
e 64 91
e 65 70
e 66 82
e 66 91
e 67 85
e 67 97
e 68 82
e 68 95
e 68 98
e 69 92
e 71 74
e 71 83
e 71 88
e 72 75
e 73 86
e 73 92
e 74 79
e 74 84
e 74 91
e 74 93
e 76 85
e 76 99
e 77 79
e 77 100
e 78 84
e 79 96
e 79 97
e 80 81
e 80 83
e 80 94
e 81 94
e 81 100
e 84 89
e 85 94
e 86 87
e 86 88
e 87 88
e 87 90
e 88 89
e 89 93
e 90 97
e 92 100
e 93 96
n 7 1
n 8 1
n 17 1
n 18 1
n 40 1
n 45 3
n 51 2
n 60 1
n 62 4
n 84 4
